set UsingKeys :=
  i n
  e r
  h e
  o n
  t h
  e n
  e s
  t e
  a n
  r e
  o r
  d e
  a t
  e d
  t i
  h i
  i d
  a r
  a s
  i s
  s t
  m e
  n t
  n g
  n d
  r u
  i c
  o u
  a l
  e a
  l e
  r i
  t o
  v e
  i o
  o f
  u m
  c e
  e c
  m p
  s e
  s i
  a c
  u n
  c o
  e m
  f o
  l a
  n s
  i t
  r s
  c h
  e e
  h a
  n c
  o m
  w e
  c a
  c t
  i l
  l i
  l l
  m a
  m i
  n a
  r a
  r o
  r t
  t a
  e l
  u s
  n o
  a i
  d a
  e p
  p e
  p o
  p r
  b e
  c l
  f i
  i r
  n e
  a g
  a y
  d i
  h o
  l y
  g h
  i m
  i v
  o t
  p a
  s u
  u p
  a m
  f r
  i e
  i g
  m o
  n n
  o l
  o v
  s p
  t s
  v a
  w a
  a v
  b l
  b y
  c y
  e f
  f e
  g e
  g o
  i a
  k e
  o w
  r m
  u r
  v i
  w h
  e t
  e v
  f f
  f t
  l u
  n i
  p i
  r d
  r g
  s a
  s s
  u b
  u t
  w i
  a d
  a f
  b a
  c r
  g a
  l d
  l o
  p p
  p u
  t r
  t y
  u d
  u e
  u g
  u l
  w o
  c k
  e i
  e k
  f a
  h t
  l s
  l t
  o c
  s d
  t w
  v o
  a k
  a u
  b i
  b o
  c i
  c u
  e b
  e o
  f u
  g i
  g r
  i f
  m b
  n v
  o o
  r k
  s h
  t t
  u c
  y e
  a h
  a p
  a w
  b u
  c c
  d l
  d o
  d t
  e x
  e y
  g s
  i x
  j o
  j u
  k i
  k n
  k s
  l m
  l r
  m m
  m u
  n k
  n u
  n w
  o e
  o i
  p l
  r l
  r n
  r v
  r y
  s o
  s w
  t l
  t u
  y s
  z o
  a b
  a j
  a o
  a x
  a z
  b r
  d d
  d g
  d m
  d r
  d s
  d u
  d v
  e h
  e q
  e w
  f l
  f y
  g g
  g l
  g t
  g y
  h r
  h s
  h w
  i k
  i p
  i z
  k a
  k l
  k m
  l v
  m s
  m y
  n x
  n y
  o p
  o s
  p d
  q u
  r c
  r f
  r w
  s c
  s k
  s l
  s y
  t c
  t m
  t p
  u a
  u i
  u o
  w d
  w l
  w m
  w n
  x e
  x i
  x p
  x t
  y l;